* ENCODING=ISO-8859-1
NAME          CPLEX
ROWS
 N  obj1    
 G  c1      
 G  c2      
 G  c3      
 G  c4      
 G  c5      
 G  c6      
 G  c7      
 G  c8      
 G  c9      
 G  c10     
 G  c11     
 G  c12     
 G  c13     
 G  c14     
 G  c15     
 G  c16     
 G  c17     
 G  c18     
 G  c19     
 G  c20     
 G  c21     
 G  c22     
 G  c23     
 G  c24     
 G  c25     
 G  c26     
 G  c27     
 G  c28     
 G  c29     
 G  c30     
 G  c31     
 G  c32     
 G  c33     
 G  c34     
 G  c35     
 G  c36     
 G  c37     
 G  c38     
 G  c39     
 G  c40     
 G  c41     
 G  c42     
 G  c43     
 G  c44     
 G  c45     
 G  c46     
 G  c47     
 G  c48     
 G  c49     
 G  c50     
COLUMNS
    MARK0000  'MARKER'                 'INTORG'
    x1        obj1                            1
    x1        c8                            323
    x1        c36                           771
    x1        c46                           973
    x1        c48                           259
    x2        obj1                            1
    x3        obj1                            1
    x3        c10                           687
    x3        c30                           521
    x3        c41                           280
    x3        c49                           573
    x4        obj1                            1
    x4        c18                           510
    x4        c22                           753
    x4        c23                           493
    x4        c26                           958
    x4        c28                           472
    x4        c46                           410
    x5        obj1                            1
    x5        c32                           420
    x6        obj1                            1
    x6        c18                           826
    x6        c37                           349
    x7        obj1                            1
    x7        c4                            160
    x7        c5                            162
    x7        c7                            142
    x7        c41                           803
    x7        c44                           725
    x8        obj1                            1
    x8        c11                           454
    x8        c12                           410
    x8        c20                           423
    x8        c26                           453
    x8        c36                           410
    x8        c48                           680
    x9        obj1                            1
    x9        c6                            889
    x9        c11                           492
    x9        c37                           808
    x10       obj1                            1
    x10       c12                           813
    x10       c13                           331
    x10       c16                           904
    x10       c19                           244
    x10       c22                           688
    x10       c34                           593
    x10       c42                           150
    x10       c44                           599
    x11       obj1                            1
    x11       c4                            780
    x11       c5                            246
    x11       c12                           772
    x11       c13                           835
    x11       c28                           352
    x11       c35                           816
    x11       c41                           931
    x11       c43                           607
    x12       obj1                            1
    x12       c13                           468
    x12       c15                           512
    x12       c20                           796
    x12       c29                           212
    x12       c32                           812
    x12       c34                           597
    x12       c37                           360
    x13       obj1                            1
    x13       c2                            655
    x13       c10                           622
    x13       c11                           405
    x13       c19                           879
    x13       c31                           702
    x13       c33                           777
    x13       c35                           347
    x14       obj1                            1
    x14       c20                           913
    x14       c44                           174
    x15       obj1                            1
    x15       c1                            870
    x15       c7                            182
    x15       c10                           924
    x15       c19                           255
    x15       c22                           526
    x15       c32                           301
    x15       c45                           856
    x16       obj1                            1
    x16       c3                            245
    x16       c9                            989
    x16       c23                           457
    x16       c28                           638
    x16       c31                           395
    x16       c48                           866
    x17       obj1                            1
    x17       c39                           593
    x18       obj1                            1
    x18       c27                           108
    x18       c31                           614
    x18       c34                           181
    x18       c36                           830
    x18       c38                           611
    x18       c47                           631
    x19       obj1                            1
    x19       c8                            919
    x19       c12                           666
    x19       c16                           228
    x19       c23                           493
    x19       c26                           651
    x19       c29                           908
    x19       c41                           754
    x20       obj1                            1
    x20       c1                            842
    x20       c13                           533
    x20       c17                           259
    x20       c28                           720
    x20       c39                           110
    x20       c40                           296
    x20       c48                           774
    x21       obj1                            1
    x21       c14                           555
    x21       c39                           737
    x21       c43                           487
    x22       obj1                            1
    x22       c9                            460
    x22       c11                           715
    x22       c14                           358
    x22       c38                           381
    x22       c42                           374
    x23       obj1                            1
    x23       c7                            689
    x23       c8                            844
    x23       c27                           314
    x23       c30                           306
    x24       obj1                            1
    x24       c16                           198
    x24       c33                           177
    x25       obj1                            1
    x25       c11                           548
    x25       c19                           129
    x25       c25                           255
    x25       c32                           531
    x25       c37                           549
    x26       obj1                            1
    x26       c1                            424
    x26       c34                           631
    x26       c38                           707
    x26       c47                           178
    x27       obj1                            1
    x27       c24                           641
    x27       c43                           292
    x28       obj1                            1
    x28       c18                           194
    x28       c19                           501
    x28       c36                           618
    x28       c37                           163
    x28       c44                           187
    x28       c45                           354
    x29       obj1                            1
    x29       c4                            393
    x29       c13                           459
    x29       c36                           961
    x29       c43                           668
    x30       obj1                            1
    x30       c23                           206
    x30       c36                           472
    x30       c47                           402
    x31       obj1                            1
    x31       c27                           714
    x31       c48                           541
    x31       c50                           391
    x32       obj1                            1
    x32       c3                            784
    x32       c8                            451
    x32       c13                           596
    x32       c14                           445
    x32       c50                           752
    x33       obj1                            1
    x33       c2                            919
    x33       c20                           750
    x33       c26                           645
    x33       c27                           424
    x33       c42                           811
    x33       c45                           190
    x34       obj1                            1
    x34       c4                            395
    x34       c17                           339
    x34       c23                           620
    x34       c24                           628
    x34       c31                           867
    x34       c32                           626
    x34       c47                           511
    x35       obj1                            1
    x35       c11                           245
    x35       c17                           415
    x35       c19                           466
    x35       c34                           688
    x35       c37                           491
    x35       c39                           368
    x36       obj1                            1
    x36       c3                            994
    x36       c14                           949
    x36       c21                           505
    x36       c28                           580
    x36       c33                           847
    x36       c38                           190
    x36       c40                           521
    x36       c45                           718
    x36       c47                           790
    x37       obj1                            1
    x37       c4                            517
    x37       c9                            462
    x37       c12                           588
    x37       c26                           487
    x37       c38                           675
    x38       obj1                            1
    x38       c5                            714
    x38       c22                           554
    x38       c24                           312
    x38       c27                           505
    x38       c30                           129
    x38       c32                           271
    x38       c38                           722
    x38       c40                           756
    x38       c42                           495
    x38       c43                           899
    x38       c45                           182
    x39       obj1                            1
    x39       c3                            677
    x39       c14                           207
    x39       c15                           268
    x39       c34                           847
    x39       c42                           787
    x39       c49                           925
    x40       obj1                            1
    x40       c2                            928
    x40       c28                           296
    x41       obj1                            1
    x41       c4                            480
    x41       c12                           513
    x41       c24                           962
    x41       c25                           488
    x41       c30                           644
    x41       c48                           818
    x42       obj1                            1
    x42       c6                            262
    x42       c21                           132
    x42       c28                           929
    x42       c29                           299
    x42       c30                           961
    x42       c32                           355
    x43       obj1                            1
    x43       c7                            952
    x43       c15                           333
    x43       c17                           701
    x43       c25                           176
    x43       c42                           253
    x44       obj1                            1
    x44       c3                            956
    x44       c6                            369
    x44       c16                           575
    x44       c17                           616
    x44       c38                           341
    x44       c39                           391
    x44       c46                           893
    x44       c49                           487
    x45       obj1                            1
    x45       c16                           882
    x45       c21                           855
    x45       c22                           379
    x45       c26                           796
    x45       c27                           700
    x45       c30                           652
    x45       c49                           864
    x46       obj1                            1
    x46       c2                            477
    x46       c20                           804
    x46       c24                           946
    x46       c31                           558
    x46       c40                           402
    x46       c43                           204
    x46       c45                           829
    x47       obj1                            1
    x47       c6                            369
    x47       c11                           900
    x47       c13                           983
    x47       c16                           597
    x47       c39                           183
    x48       obj1                            1
    x48       c5                            901
    x48       c7                            853
    x48       c9                            315
    x48       c12                           809
    x48       c14                           122
    x48       c23                           732
    x48       c43                           216
    x49       obj1                            1
    x49       c42                           470
    x49       c45                           320
    x49       c46                           917
    x49       c49                           915
    x50       obj1                            1
    x50       c15                           448
    x50       c27                           352
    x50       c35                           397
    x50       c40                           838
    x50       c44                           947
    x50       c50                           774
    MARK0001  'MARKER'                 'INTEND'
RHS
    rhs       c1                           1068
    rhs       c2                           1490
    rhs       c3                           1828
    rhs       c4                           1363
    rhs       c5                           1012
    rhs       c6                            945
    rhs       c7                           1409
    rhs       c8                           1269
    rhs       c9                           1113
    rhs       c10                          1117
    rhs       c11                          1880
    rhs       c12                          2286
    rhs       c13                          2103
    rhs       c14                          1318
    rhs       c15                           781
    rhs       c16                          1692
    rhs       c17                          1165
    rhs       c18                           765
    rhs       c19                          1237
    rhs       c20                          1843
    rhs       c21                           746
    rhs       c22                          1450
    rhs       c23                          1501
    rhs       c24                          1745
    rhs       c25                           460
    rhs       c26                          1995
    rhs       c27                          1559
    rhs       c28                          1994
    rhs       c29                           710
    rhs       c30                          1607
    rhs       c31                          1568
    rhs       c32                          1658
    rhs       c33                           901
    rhs       c34                          1769
    rhs       c35                           780
    rhs       c36                          2031
    rhs       c37                          1360
    rhs       c38                          1814
    rhs       c39                          1191
    rhs       c40                          1407
    rhs       c41                          1384
    rhs       c42                          1670
    rhs       c43                          1687
    rhs       c44                          1316
    rhs       c45                          1725
    rhs       c46                          1597
    rhs       c47                          1256
    rhs       c48                          1969
    rhs       c49                          1882
    rhs       c50                           959
BOUNDS
 LI bnd       x1        0
 LI bnd       x2        0
 LI bnd       x3        0
 LI bnd       x4        0
 LI bnd       x5        0
 LI bnd       x6        0
 LI bnd       x7        0
 LI bnd       x8        0
 LI bnd       x9        0
 LI bnd       x10       0
 LI bnd       x11       0
 LI bnd       x12       0
 LI bnd       x13       0
 LI bnd       x14       0
 LI bnd       x15       0
 LI bnd       x16       0
 LI bnd       x17       0
 LI bnd       x18       0
 LI bnd       x19       0
 LI bnd       x20       0
 LI bnd       x21       0
 LI bnd       x22       0
 LI bnd       x23       0
 LI bnd       x24       0
 LI bnd       x25       0
 LI bnd       x26       0
 LI bnd       x27       0
 LI bnd       x28       0
 LI bnd       x29       0
 LI bnd       x30       0
 LI bnd       x31       0
 LI bnd       x32       0
 LI bnd       x33       0
 LI bnd       x34       0
 LI bnd       x35       0
 LI bnd       x36       0
 LI bnd       x37       0
 LI bnd       x38       0
 LI bnd       x39       0
 LI bnd       x40       0
 LI bnd       x41       0
 LI bnd       x42       0
 LI bnd       x43       0
 LI bnd       x44       0
 LI bnd       x45       0
 LI bnd       x46       0
 LI bnd       x47       0
 LI bnd       x48       0
 LI bnd       x49       0
 LI bnd       x50       0
ENDATA
